p edge 100 2475
e 1 3
e 1 6
e 1 9
e 1 11
e 1 12
e 1 13
e 1 14
e 1 16
e 1 17
e 1 19
e 1 20
e 1 21
e 1 26
e 1 27
e 1 32
e 1 34
e 1 35
e 1 44
e 1 45
e 1 46
e 1 48
e 1 50
e 1 52
e 1 54
e 1 56
e 1 57
e 1 61
e 1 62
e 1 64
e 1 68
e 1 69
e 1 70
e 1 74
e 1 76
e 1 77
e 1 78
e 1 79
e 1 81
e 1 85
e 1 86
e 1 88
e 1 91
e 1 95
e 1 96
e 1 97
e 1 99
e 1 100
e 2 8
e 2 12
e 2 13
e 2 17
e 2 18
e 2 23
e 2 24
e 2 26
e 2 27
e 2 29
e 2 31
e 2 32
e 2 33
e 2 35
e 2 36
e 2 37
e 2 38
e 2 39
e 2 40
e 2 41
e 2 47
e 2 48
e 2 49
e 2 51
e 2 52
e 2 54
e 2 56
e 2 59
e 2 60
e 2 61
e 2 62
e 2 63
e 2 64
e 2 66
e 2 67
e 2 68
e 2 69
e 2 70
e 2 73
e 2 74
e 2 76
e 2 77
e 2 79
e 2 80
e 2 81
e 2 84
e 2 86
e 2 89
e 2 91
e 2 94
e 2 96
e 2 98
e 2 99
e 3 4
e 3 7
e 3 9
e 3 12
e 3 15
e 3 16
e 3 18
e 3 19
e 3 23
e 3 25
e 3 26
e 3 34
e 3 36
e 3 38
e 3 40
e 3 41
e 3 42
e 3 48
e 3 49
e 3 51
e 3 53
e 3 57
e 3 58
e 3 60
e 3 62
e 3 64
e 3 69
e 3 70
e 3 71
e 3 72
e 3 73
e 3 75
e 3 77
e 3 81
e 3 82
e 3 83
e 3 85
e 3 88
e 3 90
e 3 91
e 3 93
e 3 96
e 3 97
e 3 98
e 3 100
e 4 5
e 4 8
e 4 11
e 4 12
e 4 13
e 4 14
e 4 19
e 4 23
e 4 24
e 4 25
e 4 27
e 4 28
e 4 29
e 4 31
e 4 34
e 4 36
e 4 40
e 4 41
e 4 42
e 4 45
e 4 47
e 4 48
e 4 50
e 4 51
e 4 52
e 4 56
e 4 59
e 4 60
e 4 61
e 4 65
e 4 68
e 4 69
e 4 71
e 4 73
e 4 74
e 4 76
e 4 77
e 4 80
e 4 81
e 4 83
e 4 85
e 4 86
e 4 88
e 4 90
e 4 91
e 4 92
e 4 95
e 4 98
e 4 99
e 4 100
e 5 6
e 5 7
e 5 8
e 5 9
e 5 10
e 5 11
e 5 14
e 5 16
e 5 19
e 5 20
e 5 22
e 5 28
e 5 29
e 5 30
e 5 31
e 5 33
e 5 34
e 5 36
e 5 39
e 5 40
e 5 44
e 5 46
e 5 48
e 5 50
e 5 51
e 5 57
e 5 59
e 5 60
e 5 62
e 5 63
e 5 65
e 5 66
e 5 67
e 5 68
e 5 70
e 5 73
e 5 74
e 5 75
e 5 77
e 5 78
e 5 79
e 5 81
e 5 88
e 5 91
e 5 92
e 5 93
e 5 95
e 5 96
e 5 97
e 5 98
e 6 7
e 6 9
e 6 11
e 6 12
e 6 13
e 6 14
e 6 16
e 6 17
e 6 19
e 6 20
e 6 23
e 6 24
e 6 25
e 6 27
e 6 28
e 6 32
e 6 33
e 6 35
e 6 36
e 6 40
e 6 42
e 6 43
e 6 44
e 6 45
e 6 51
e 6 52
e 6 53
e 6 55
e 6 57
e 6 58
e 6 59
e 6 60
e 6 61
e 6 62
e 6 63
e 6 64
e 6 65
e 6 66
e 6 69
e 6 73
e 6 74
e 6 75
e 6 79
e 6 80
e 6 83
e 6 92
e 6 93
e 6 94
e 6 95
e 6 100
e 7 9
e 7 11
e 7 14
e 7 15
e 7 16
e 7 18
e 7 19
e 7 24
e 7 25
e 7 27
e 7 28
e 7 29
e 7 32
e 7 33
e 7 36
e 7 39
e 7 43
e 7 44
e 7 47
e 7 48
e 7 56
e 7 59
e 7 61
e 7 67
e 7 68
e 7 69
e 7 72
e 7 75
e 7 78
e 7 79
e 7 80
e 7 82
e 7 83
e 7 84
e 7 86
e 7 87
e 7 88
e 7 89
e 7 92
e 8 9
e 8 10
e 8 11
e 8 15
e 8 16
e 8 17
e 8 18
e 8 20
e 8 21
e 8 24
e 8 25
e 8 28
e 8 29
e 8 31
e 8 32
e 8 33
e 8 34
e 8 36
e 8 37
e 8 38
e 8 40
e 8 44
e 8 47
e 8 48
e 8 50
e 8 51
e 8 52
e 8 53
e 8 54
e 8 55
e 8 56
e 8 61
e 8 63
e 8 67
e 8 70
e 8 73
e 8 75
e 8 78
e 8 79
e 8 80
e 8 81
e 8 82
e 8 86
e 8 90
e 8 91
e 8 95
e 8 100
e 9 10
e 9 11
e 9 16
e 9 18
e 9 20
e 9 22
e 9 26
e 9 27
e 9 30
e 9 31
e 9 32
e 9 33
e 9 36
e 9 40
e 9 43
e 9 45
e 9 48
e 9 51
e 9 52
e 9 54
e 9 57
e 9 60
e 9 61
e 9 62
e 9 65
e 9 66
e 9 67
e 9 68
e 9 70
e 9 71
e 9 72
e 9 74
e 9 75
e 9 79
e 9 80
e 9 81
e 9 82
e 9 88
e 9 93
e 9 94
e 9 99
e 10 11
e 10 13
e 10 14
e 10 16
e 10 17
e 10 20
e 10 21
e 10 24
e 10 25
e 10 29
e 10 30
e 10 32
e 10 33
e 10 34
e 10 35
e 10 36
e 10 37
e 10 41
e 10 44
e 10 46
e 10 50
e 10 51
e 10 52
e 10 55
e 10 57
e 10 58
e 10 59
e 10 60
e 10 61
e 10 62
e 10 66
e 10 70
e 10 72
e 10 74
e 10 77
e 10 78
e 10 79
e 10 81
e 10 83
e 10 85
e 10 90
e 10 92
e 10 93
e 10 94
e 10 95
e 10 97
e 10 98
e 10 99
e 10 100
e 11 13
e 11 16
e 11 17
e 11 20
e 11 21
e 11 23
e 11 24
e 11 28
e 11 29
e 11 33
e 11 35
e 11 36
e 11 38
e 11 39
e 11 41
e 11 42
e 11 44
e 11 47
e 11 48
e 11 51
e 11 52
e 11 53
e 11 56
e 11 57
e 11 58
e 11 59
e 11 60
e 11 61
e 11 62
e 11 63
e 11 67
e 11 71
e 11 74
e 11 76
e 11 78
e 11 79
e 11 82
e 11 83
e 11 85
e 11 86
e 11 87
e 11 88
e 11 90
e 11 91
e 11 93
e 11 96
e 11 97
e 11 99
e 12 13
e 12 16
e 12 18
e 12 21
e 12 22
e 12 23
e 12 25
e 12 26
e 12 28
e 12 40
e 12 44
e 12 45
e 12 46
e 12 47
e 12 48
e 12 51
e 12 52
e 12 54
e 12 55
e 12 57
e 12 58
e 12 59
e 12 61
e 12 62
e 12 63
e 12 65
e 12 66
e 12 67
e 12 70
e 12 72
e 12 73
e 12 74
e 12 80
e 12 82
e 12 84
e 12 85
e 12 88
e 12 89
e 12 93
e 12 94
e 12 96
e 12 100
e 13 15
e 13 16
e 13 17
e 13 18
e 13 19
e 13 20
e 13 22
e 13 24
e 13 26
e 13 27
e 13 28
e 13 29
e 13 31
e 13 36
e 13 38
e 13 40
e 13 42
e 13 43
e 13 44
e 13 45
e 13 48
e 13 49
e 13 52
e 13 53
e 13 56
e 13 58
e 13 60
e 13 61
e 13 62
e 13 65
e 13 67
e 13 68
e 13 69
e 13 72
e 13 74
e 13 75
e 13 76
e 13 77
e 13 79
e 13 80
e 13 81
e 13 82
e 13 83
e 13 84
e 13 88
e 13 89
e 13 91
e 13 92
e 13 93
e 13 94
e 13 97
e 13 100
e 14 17
e 14 19
e 14 23
e 14 24
e 14 26
e 14 27
e 14 28
e 14 30
e 14 33
e 14 35
e 14 37
e 14 38
e 14 39
e 14 40
e 14 43
e 14 45
e 14 46
e 14 47
e 14 48
e 14 49
e 14 50
e 14 51
e 14 52
e 14 53
e 14 56
e 14 57
e 14 59
e 14 60
e 14 61
e 14 63
e 14 64
e 14 66
e 14 67
e 14 68
e 14 69
e 14 75
e 14 76
e 14 78
e 14 79
e 14 80
e 14 81
e 14 84
e 14 85
e 14 92
e 14 96
e 14 98
e 14 100
e 15 18
e 15 19
e 15 20
e 15 23
e 15 29
e 15 30
e 15 32
e 15 34
e 15 36
e 15 37
e 15 38
e 15 39
e 15 40
e 15 43
e 15 44
e 15 45
e 15 46
e 15 48
e 15 49
e 15 52
e 15 54
e 15 56
e 15 58
e 15 61
e 15 62
e 15 67
e 15 69
e 15 70
e 15 71
e 15 76
e 15 79
e 15 81
e 15 82
e 15 83
e 15 84
e 15 90
e 15 91
e 15 92
e 15 96
e 15 99
e 15 100
e 16 21
e 16 22
e 16 23
e 16 25
e 16 30
e 16 33
e 16 34
e 16 35
e 16 36
e 16 37
e 16 38
e 16 39
e 16 40
e 16 42
e 16 43
e 16 44
e 16 45
e 16 46
e 16 47
e 16 49
e 16 50
e 16 51
e 16 52
e 16 53
e 16 54
e 16 55
e 16 56
e 16 64
e 16 67
e 16 68
e 16 70
e 16 71
e 16 72
e 16 78
e 16 79
e 16 83
e 16 84
e 16 85
e 16 86
e 16 88
e 16 90
e 16 96
e 16 97
e 17 18
e 17 19
e 17 20
e 17 21
e 17 22
e 17 23
e 17 34
e 17 35
e 17 38
e 17 39
e 17 44
e 17 48
e 17 49
e 17 50
e 17 51
e 17 53
e 17 54
e 17 58
e 17 59
e 17 62
e 17 64
e 17 65
e 17 68
e 17 72
e 17 74
e 17 77
e 17 78
e 17 79
e 17 82
e 17 83
e 17 84
e 17 85
e 17 86
e 17 89
e 17 91
e 17 92
e 17 97
e 18 20
e 18 21
e 18 23
e 18 26
e 18 28
e 18 32
e 18 35
e 18 39
e 18 40
e 18 43
e 18 44
e 18 46
e 18 49
e 18 54
e 18 55
e 18 56
e 18 57
e 18 58
e 18 60
e 18 65
e 18 67
e 18 68
e 18 70
e 18 72
e 18 74
e 18 75
e 18 77
e 18 82
e 18 87
e 18 89
e 18 90
e 18 91
e 18 93
e 18 95
e 18 98
e 18 100
e 19 21
e 19 23
e 19 24
e 19 25
e 19 26
e 19 28
e 19 31
e 19 32
e 19 33
e 19 34
e 19 35
e 19 36
e 19 38
e 19 39
e 19 42
e 19 43
e 19 46
e 19 50
e 19 52
e 19 53
e 19 56
e 19 57
e 19 58
e 19 61
e 19 66
e 19 69
e 19 71
e 19 76
e 19 77
e 19 79
e 19 80
e 19 83
e 19 85
e 19 87
e 19 88
e 19 90
e 19 92
e 19 93
e 19 94
e 19 96
e 19 98
e 20 21
e 20 23
e 20 28
e 20 32
e 20 33
e 20 35
e 20 38
e 20 42
e 20 43
e 20 44
e 20 46
e 20 47
e 20 48
e 20 49
e 20 52
e 20 54
e 20 55
e 20 58
e 20 59
e 20 63
e 20 64
e 20 66
e 20 69
e 20 70
e 20 73
e 20 74
e 20 75
e 20 76
e 20 78
e 20 80
e 20 81
e 20 82
e 20 84
e 20 87
e 20 88
e 20 89
e 20 90
e 20 91
e 20 92
e 20 93
e 20 94
e 20 96
e 20 100
e 21 22
e 21 23
e 21 28
e 21 29
e 21 30
e 21 31
e 21 33
e 21 36
e 21 40
e 21 42
e 21 44
e 21 45
e 21 48
e 21 51
e 21 53
e 21 55
e 21 58
e 21 62
e 21 67
e 21 70
e 21 72
e 21 74
e 21 75
e 21 77
e 21 78
e 21 81
e 21 83
e 21 84
e 21 85
e 21 87
e 21 88
e 21 91
e 21 93
e 21 94
e 21 96
e 21 98
e 21 100
e 22 24
e 22 26
e 22 28
e 22 34
e 22 36
e 22 39
e 22 40
e 22 41
e 22 44
e 22 45
e 22 46
e 22 48
e 22 49
e 22 50
e 22 52
e 22 53
e 22 54
e 22 61
e 22 62
e 22 63
e 22 66
e 22 68
e 22 72
e 22 73
e 22 74
e 22 76
e 22 79
e 22 81
e 22 83
e 22 84
e 22 87
e 22 88
e 22 90
e 22 92
e 22 93
e 22 94
e 22 96
e 22 98
e 23 24
e 23 25
e 23 27
e 23 28
e 23 30
e 23 32
e 23 34
e 23 38
e 23 39
e 23 41
e 23 42
e 23 44
e 23 45
e 23 48
e 23 49
e 23 52
e 23 56
e 23 58
e 23 59
e 23 60
e 23 61
e 23 62
e 23 67
e 23 70
e 23 73
e 23 74
e 23 76
e 23 80
e 23 82
e 23 83
e 23 85
e 23 86
e 23 87
e 23 89
e 23 90
e 23 91
e 23 92
e 23 94
e 23 97
e 23 99
e 23 100
e 24 26
e 24 27
e 24 29
e 24 30
e 24 32
e 24 33
e 24 40
e 24 41
e 24 45
e 24 46
e 24 47
e 24 49
e 24 50
e 24 51
e 24 52
e 24 58
e 24 60
e 24 62
e 24 63
e 24 64
e 24 66
e 24 68
e 24 70
e 24 72
e 24 74
e 24 75
e 24 76
e 24 77
e 24 79
e 24 83
e 24 84
e 24 90
e 24 91
e 24 93
e 24 94
e 24 100
e 25 26
e 25 29
e 25 31
e 25 32
e 25 33
e 25 35
e 25 37
e 25 40
e 25 41
e 25 44
e 25 45
e 25 46
e 25 47
e 25 48
e 25 49
e 25 50
e 25 51
e 25 53
e 25 55
e 25 56
e 25 57
e 25 58
e 25 59
e 25 60
e 25 62
e 25 63
e 25 64
e 25 66
e 25 67
e 25 68
e 25 71
e 25 72
e 25 74
e 25 76
e 25 78
e 25 81
e 25 82
e 25 84
e 25 86
e 25 87
e 25 89
e 25 90
e 25 92
e 25 94
e 25 95
e 25 96
e 25 100
e 26 27
e 26 28
e 26 30
e 26 31
e 26 34
e 26 35
e 26 36
e 26 38
e 26 39
e 26 40
e 26 42
e 26 43
e 26 46
e 26 48
e 26 49
e 26 50
e 26 51
e 26 52
e 26 53
e 26 54
e 26 57
e 26 59
e 26 60
e 26 61
e 26 62
e 26 63
e 26 65
e 26 67
e 26 68
e 26 73
e 26 75
e 26 77
e 26 78
e 26 80
e 26 81
e 26 82
e 26 84
e 26 85
e 26 87
e 26 88
e 26 89
e 26 90
e 26 91
e 26 92
e 26 93
e 26 95
e 26 97
e 26 99
e 27 28
e 27 35
e 27 37
e 27 38
e 27 39
e 27 40
e 27 41
e 27 45
e 27 47
e 27 51
e 27 52
e 27 57
e 27 58
e 27 61
e 27 65
e 27 69
e 27 70
e 27 71
e 27 74
e 27 75
e 27 76
e 27 77
e 27 80
e 27 81
e 27 83
e 27 86
e 27 87
e 27 89
e 27 92
e 27 93
e 27 94
e 27 95
e 27 98
e 27 99
e 28 33
e 28 41
e 28 43
e 28 44
e 28 47
e 28 50
e 28 51
e 28 52
e 28 53
e 28 54
e 28 55
e 28 56
e 28 58
e 28 60
e 28 61
e 28 62
e 28 64
e 28 66
e 28 72
e 28 74
e 28 76
e 28 77
e 28 80
e 28 81
e 28 85
e 28 86
e 28 90
e 28 93
e 28 94
e 28 95
e 28 97
e 28 100
e 29 30
e 29 36
e 29 38
e 29 39
e 29 44
e 29 49
e 29 52
e 29 56
e 29 57
e 29 58
e 29 60
e 29 62
e 29 63
e 29 64
e 29 66
e 29 67
e 29 68
e 29 69
e 29 74
e 29 75
e 29 80
e 29 82
e 29 83
e 29 84
e 29 85
e 29 91
e 29 92
e 29 95
e 29 97
e 30 32
e 30 33
e 30 35
e 30 36
e 30 37
e 30 38
e 30 39
e 30 50
e 30 51
e 30 56
e 30 57
e 30 58
e 30 59
e 30 61
e 30 62
e 30 63
e 30 65
e 30 68
e 30 71
e 30 72
e 30 75
e 30 76
e 30 77
e 30 78
e 30 80
e 30 81
e 30 83
e 30 84
e 30 86
e 30 87
e 30 91
e 30 94
e 30 95
e 30 96
e 30 99
e 31 33
e 31 34
e 31 36
e 31 39
e 31 40
e 31 41
e 31 43
e 31 45
e 31 46
e 31 51
e 31 54
e 31 55
e 31 56
e 31 58
e 31 60
e 31 61
e 31 65
e 31 67
e 31 68
e 31 69
e 31 71
e 31 72
e 31 77
e 31 78
e 31 79
e 31 88
e 31 90
e 31 91
e 31 94
e 31 97
e 32 36
e 32 37
e 32 38
e 32 39
e 32 41
e 32 42
e 32 45
e 32 46
e 32 47
e 32 51
e 32 52
e 32 53
e 32 54
e 32 57
e 32 60
e 32 63
e 32 65
e 32 68
e 32 69
e 32 72
e 32 75
e 32 77
e 32 79
e 32 80
e 32 81
e 32 84
e 32 87
e 32 89
e 32 90
e 32 96
e 32 97
e 32 98
e 32 100
e 33 34
e 33 36
e 33 39
e 33 40
e 33 41
e 33 42
e 33 43
e 33 44
e 33 45
e 33 46
e 33 48
e 33 52
e 33 53
e 33 54
e 33 56
e 33 57
e 33 58
e 33 59
e 33 61
e 33 62
e 33 67
e 33 68
e 33 69
e 33 72
e 33 73
e 33 75
e 33 77
e 33 78
e 33 81
e 33 82
e 33 84
e 33 85
e 33 87
e 33 88
e 33 92
e 33 93
e 33 94
e 33 96
e 33 97
e 33 98
e 34 35
e 34 40
e 34 41
e 34 43
e 34 44
e 34 45
e 34 46
e 34 49
e 34 51
e 34 54
e 34 58
e 34 61
e 34 63
e 34 65
e 34 67
e 34 69
e 34 71
e 34 72
e 34 73
e 34 75
e 34 78
e 34 79
e 34 80
e 34 81
e 34 85
e 34 86
e 34 88
e 34 90
e 34 93
e 34 94
e 34 95
e 34 97
e 35 36
e 35 38
e 35 39
e 35 40
e 35 42
e 35 43
e 35 44
e 35 47
e 35 48
e 35 49
e 35 56
e 35 57
e 35 63
e 35 64
e 35 66
e 35 67
e 35 70
e 35 72
e 35 75
e 35 76
e 35 77
e 35 80
e 35 81
e 35 82
e 35 83
e 35 88
e 35 89
e 35 92
e 35 93
e 35 94
e 35 95
e 35 96
e 35 97
e 35 99
e 36 38
e 36 40
e 36 41
e 36 45
e 36 46
e 36 47
e 36 48
e 36 49
e 36 50
e 36 51
e 36 53
e 36 54
e 36 56
e 36 58
e 36 63
e 36 64
e 36 70
e 36 72
e 36 73
e 36 75
e 36 76
e 36 77
e 36 83
e 36 84
e 36 85
e 36 86
e 36 87
e 36 92
e 36 95
e 36 100
e 37 40
e 37 42
e 37 48
e 37 49
e 37 51
e 37 52
e 37 55
e 37 56
e 37 66
e 37 68
e 37 70
e 37 72
e 37 74
e 37 77
e 37 78
e 37 82
e 37 83
e 37 85
e 37 89
e 37 92
e 37 93
e 37 96
e 37 99
e 37 100
e 38 40
e 38 43
e 38 44
e 38 47
e 38 52
e 38 54
e 38 61
e 38 62
e 38 65
e 38 69
e 38 71
e 38 72
e 38 75
e 38 76
e 38 79
e 38 80
e 38 81
e 38 82
e 38 85
e 38 90
e 38 95
e 38 96
e 38 97
e 38 98
e 38 100
e 39 40
e 39 41
e 39 43
e 39 44
e 39 45
e 39 46
e 39 47
e 39 50
e 39 52
e 39 53
e 39 54
e 39 55
e 39 56
e 39 57
e 39 60
e 39 65
e 39 68
e 39 70
e 39 73
e 39 75
e 39 80
e 39 81
e 39 86
e 39 88
e 39 90
e 39 93
e 39 96
e 39 99
e 40 43
e 40 44
e 40 48
e 40 49
e 40 51
e 40 52
e 40 53
e 40 54
e 40 55
e 40 56
e 40 57
e 40 58
e 40 65
e 40 67
e 40 70
e 40 71
e 40 72
e 40 76
e 40 77
e 40 80
e 40 82
e 40 85
e 40 86
e 40 87
e 40 88
e 40 91
e 40 97
e 40 98
e 41 44
e 41 47
e 41 49
e 41 51
e 41 52
e 41 54
e 41 55
e 41 58
e 41 59
e 41 60
e 41 63
e 41 64
e 41 65
e 41 66
e 41 67
e 41 69
e 41 70
e 41 71
e 41 75
e 41 77
e 41 78
e 41 79
e 41 82
e 41 83
e 41 84
e 41 85
e 41 88
e 41 89
e 41 90
e 41 92
e 41 94
e 41 95
e 41 99
e 42 45
e 42 46
e 42 47
e 42 49
e 42 51
e 42 53
e 42 55
e 42 56
e 42 57
e 42 58
e 42 60
e 42 64
e 42 65
e 42 66
e 42 70
e 42 71
e 42 72
e 42 73
e 42 75
e 42 76
e 42 77
e 42 79
e 42 80
e 42 81
e 42 84
e 42 86
e 42 87
e 42 88
e 42 93
e 42 98
e 42 99
e 43 44
e 43 45
e 43 46
e 43 47
e 43 48
e 43 49
e 43 50
e 43 51
e 43 59
e 43 60
e 43 61
e 43 63
e 43 64
e 43 67
e 43 69
e 43 70
e 43 73
e 43 74
e 43 75
e 43 76
e 43 86
e 43 87
e 43 89
e 43 91
e 43 92
e 43 94
e 43 95
e 43 98
e 44 45
e 44 51
e 44 52
e 44 58
e 44 60
e 44 62
e 44 63
e 44 67
e 44 68
e 44 70
e 44 71
e 44 75
e 44 76
e 44 79
e 44 80
e 44 81
e 44 82
e 44 84
e 44 85
e 44 89
e 44 90
e 44 91
e 44 92
e 44 93
e 44 94
e 44 100
e 45 46
e 45 47
e 45 48
e 45 49
e 45 50
e 45 53
e 45 54
e 45 55
e 45 56
e 45 58
e 45 59
e 45 61
e 45 62
e 45 63
e 45 64
e 45 65
e 45 66
e 45 67
e 45 69
e 45 72
e 45 77
e 45 78
e 45 83
e 45 85
e 45 86
e 45 87
e 45 89
e 45 90
e 45 92
e 45 93
e 45 96
e 45 97
e 45 99
e 46 48
e 46 49
e 46 50
e 46 52
e 46 58
e 46 60
e 46 70
e 46 71
e 46 72
e 46 75
e 46 76
e 46 77
e 46 79
e 46 82
e 46 84
e 46 87
e 46 90
e 46 91
e 46 92
e 46 93
e 46 94
e 46 95
e 46 97
e 46 100
e 47 48
e 47 49
e 47 50
e 47 52
e 47 53
e 47 56
e 47 59
e 47 60
e 47 61
e 47 62
e 47 67
e 47 68
e 47 70
e 47 74
e 47 75
e 47 76
e 47 77
e 47 79
e 47 80
e 47 81
e 47 82
e 47 84
e 47 85
e 47 95
e 47 96
e 47 97
e 47 99
e 47 100
e 48 49
e 48 50
e 48 52
e 48 53
e 48 54
e 48 55
e 48 56
e 48 57
e 48 61
e 48 63
e 48 66
e 48 68
e 48 70
e 48 71
e 48 73
e 48 76
e 48 81
e 48 82
e 48 89
e 48 90
e 48 92
e 48 93
e 48 98
e 48 99
e 48 100
e 49 50
e 49 51
e 49 54
e 49 56
e 49 57
e 49 60
e 49 61
e 49 62
e 49 64
e 49 65
e 49 66
e 49 67
e 49 68
e 49 70
e 49 74
e 49 76
e 49 79
e 49 80
e 49 81
e 49 82
e 49 83
e 49 85
e 49 86
e 49 89
e 49 90
e 49 91
e 49 94
e 49 95
e 49 96
e 49 98
e 50 51
e 50 52
e 50 56
e 50 57
e 50 60
e 50 61
e 50 62
e 50 64
e 50 65
e 50 66
e 50 67
e 50 73
e 50 76
e 50 77
e 50 82
e 50 83
e 50 85
e 50 87
e 50 89
e 50 90
e 50 91
e 50 97
e 51 53
e 51 55
e 51 58
e 51 60
e 51 62
e 51 63
e 51 64
e 51 65
e 51 66
e 51 67
e 51 71
e 51 73
e 51 74
e 51 75
e 51 76
e 51 78
e 51 81
e 51 82
e 51 83
e 51 84
e 51 86
e 51 88
e 51 90
e 51 94
e 51 95
e 51 97
e 51 100
e 52 54
e 52 55
e 52 57
e 52 61
e 52 62
e 52 64
e 52 65
e 52 67
e 52 68
e 52 70
e 52 73
e 52 75
e 52 77
e 52 78
e 52 80
e 52 84
e 52 85
e 52 87
e 52 88
e 52 89
e 52 91
e 52 92
e 52 94
e 53 54
e 53 56
e 53 57
e 53 58
e 53 59
e 53 62
e 53 63
e 53 66
e 53 68
e 53 69
e 53 71
e 53 73
e 53 74
e 53 76
e 53 77
e 53 80
e 53 81
e 53 82
e 53 83
e 53 86
e 53 88
e 53 90
e 53 91
e 53 92
e 53 93
e 53 97
e 54 55
e 54 57
e 54 58
e 54 60
e 54 62
e 54 64
e 54 67
e 54 71
e 54 72
e 54 73
e 54 74
e 54 75
e 54 77
e 54 79
e 54 84
e 54 86
e 54 88
e 54 89
e 54 91
e 54 92
e 54 94
e 54 95
e 54 97
e 54 99
e 55 58
e 55 59
e 55 62
e 55 64
e 55 65
e 55 66
e 55 69
e 55 70
e 55 73
e 55 74
e 55 75
e 55 77
e 55 79
e 55 81
e 55 83
e 55 84
e 55 86
e 55 87
e 55 89
e 55 90
e 55 91
e 55 92
e 55 93
e 55 95
e 55 97
e 55 100
e 56 58
e 56 59
e 56 60
e 56 61
e 56 62
e 56 63
e 56 64
e 56 65
e 56 68
e 56 69
e 56 70
e 56 71
e 56 77
e 56 81
e 56 84
e 56 91
e 56 92
e 56 95
e 56 96
e 56 99
e 56 100
e 57 58
e 57 60
e 57 62
e 57 67
e 57 68
e 57 70
e 57 71
e 57 72
e 57 75
e 57 76
e 57 78
e 57 80
e 57 82
e 57 84
e 57 86
e 57 87
e 57 89
e 57 90
e 57 91
e 57 92
e 57 93
e 57 94
e 57 95
e 57 96
e 57 99
e 57 100
e 58 59
e 58 62
e 58 65
e 58 66
e 58 69
e 58 71
e 58 76
e 58 80
e 58 82
e 58 84
e 58 88
e 58 93
e 58 96
e 58 97
e 58 100
e 59 60
e 59 61
e 59 62
e 59 64
e 59 67
e 59 69
e 59 70
e 59 71
e 59 72
e 59 74
e 59 75
e 59 76
e 59 77
e 59 78
e 59 79
e 59 80
e 59 81
e 59 84
e 59 87
e 59 88
e 59 90
e 59 92
e 59 94
e 59 95
e 59 96
e 59 97
e 59 98
e 60 61
e 60 62
e 60 63
e 60 65
e 60 68
e 60 70
e 60 71
e 60 75
e 60 79
e 60 80
e 60 82
e 60 83
e 60 86
e 60 88
e 60 91
e 60 92
e 60 94
e 60 96
e 60 97
e 60 99
e 60 100
e 61 65
e 61 67
e 61 68
e 61 69
e 61 70
e 61 71
e 61 72
e 61 73
e 61 75
e 61 76
e 61 77
e 61 78
e 61 79
e 61 81
e 61 82
e 61 83
e 61 87
e 61 88
e 61 89
e 61 91
e 61 92
e 61 94
e 61 95
e 61 98
e 61 99
e 62 64
e 62 65
e 62 66
e 62 68
e 62 70
e 62 71
e 62 74
e 62 75
e 62 77
e 62 78
e 62 81
e 62 85
e 62 87
e 62 93
e 62 94
e 62 96
e 62 99
e 63 64
e 63 65
e 63 71
e 63 75
e 63 76
e 63 77
e 63 78
e 63 81
e 63 85
e 63 87
e 63 88
e 63 89
e 63 90
e 63 92
e 63 96
e 63 100
e 64 65
e 64 66
e 64 69
e 64 72
e 64 73
e 64 75
e 64 78
e 64 80
e 64 81
e 64 83
e 64 84
e 64 87
e 64 89
e 64 96
e 64 98
e 65 70
e 65 71
e 65 72
e 65 75
e 65 78
e 65 79
e 65 80
e 65 81
e 65 82
e 65 83
e 65 84
e 65 86
e 65 87
e 65 88
e 65 89
e 65 90
e 65 91
e 65 95
e 65 98
e 66 70
e 66 71
e 66 73
e 66 76
e 66 77
e 66 79
e 66 81
e 66 83
e 66 87
e 66 88
e 66 89
e 66 92
e 66 94
e 66 96
e 66 97
e 66 98
e 67 70
e 67 71
e 67 75
e 67 76
e 67 77
e 67 79
e 67 80
e 67 81
e 67 84
e 67 85
e 67 88
e 67 91
e 67 94
e 67 96
e 67 97
e 68 69
e 68 75
e 68 78
e 68 81
e 68 82
e 68 85
e 68 87
e 68 89
e 68 92
e 68 95
e 68 98
e 69 71
e 69 75
e 69 76
e 69 77
e 69 78
e 69 80
e 69 81
e 69 82
e 69 84
e 69 90
e 69 92
e 69 97
e 69 99
e 69 100
e 70 73
e 70 76
e 70 77
e 70 79
e 70 80
e 70 81
e 70 82
e 70 83
e 70 87
e 70 88
e 70 90
e 70 92
e 70 93
e 70 96
e 70 97
e 70 99
e 71 72
e 71 75
e 71 76
e 71 78
e 71 84
e 71 87
e 71 88
e 71 89
e 71 91
e 71 92
e 71 95
e 71 96
e 71 98
e 72 73
e 72 74
e 72 75
e 72 76
e 72 79
e 72 80
e 72 81
e 72 82
e 72 83
e 72 84
e 72 85
e 72 88
e 72 89
e 72 93
e 72 94
e 72 96
e 72 97
e 72 98
e 72 100
e 73 76
e 73 78
e 73 80
e 73 81
e 73 84
e 73 85
e 73 87
e 73 89
e 73 92
e 73 93
e 73 96
e 73 98
e 73 99
e 74 75
e 74 76
e 74 77
e 74 81
e 74 84
e 74 87
e 74 90
e 74 91
e 74 94
e 74 95
e 74 98
e 74 99
e 74 100
e 75 80
e 75 82
e 75 83
e 75 86
e 75 88
e 75 89
e 75 90
e 75 91
e 75 98
e 76 77
e 76 78
e 76 82
e 76 86
e 76 87
e 76 89
e 76 91
e 76 95
e 76 96
e 76 99
e 77 78
e 77 79
e 77 84
e 77 85
e 77 86
e 77 87
e 77 88
e 77 89
e 77 91
e 77 93
e 77 97
e 77 99
e 78 79
e 78 80
e 78 81
e 78 82
e 78 89
e 78 90
e 78 91
e 78 94
e 78 95
e 78 98
e 78 99
e 79 81
e 79 82
e 79 83
e 79 84
e 79 88
e 79 91
e 79 94
e 79 97
e 80 82
e 80 91
e 80 93
e 80 95
e 80 99
e 80 100
e 81 84
e 81 85
e 81 86
e 81 87
e 81 90
e 81 92
e 81 93
e 81 94
e 81 95
e 81 98
e 81 99
e 82 83
e 82 86
e 82 87
e 82 90
e 82 91
e 82 92
e 82 95
e 82 96
e 83 84
e 83 87
e 83 88
e 83 89
e 83 90
e 83 91
e 83 93
e 83 95
e 83 98
e 83 100
e 84 85
e 84 86
e 84 90
e 84 92
e 84 93
e 84 96
e 84 99
e 85 86
e 85 88
e 85 90
e 85 94
e 85 96
e 85 97
e 85 99
e 86 88
e 86 89
e 86 90
e 86 91
e 86 92
e 86 93
e 86 94
e 86 95
e 86 97
e 86 99
e 86 100
e 87 89
e 87 94
e 87 95
e 87 96
e 87 98
e 87 100
e 88 89
e 88 90
e 88 91
e 88 96
e 89 91
e 89 92
e 89 93
e 89 94
e 89 96
e 90 92
e 90 94
e 90 98
e 90 99
e 91 92
e 91 94
e 91 96
e 91 98
e 91 99
e 91 100
e 92 94
e 92 96
e 92 99
e 93 94
e 93 95
e 93 98
e 93 100
e 94 95
e 94 97
e 94 98
e 94 99
e 95 98
e 95 99
e 95 100
e 96 97
e 96 98
e 96 100
e 98 99
e 98 100
e 99 100
